(declare-const a Real)
(declare-const b Real)
(declare-const c Real)
(assert (= (+ a b c) 1))
(assert (> a 0))
(assert (> b 0))
(assert (> c 0))
(assert (not (<= (+ 20 (* 8 a) (* 8 c) (* 8 (pow b 2)) (* (pow (+ a (* b c)) (/ -1 2)) (+ (* -8 b) (* -8 a c))) (* (pow (+ a (* b c)) (/ -1 2)) (+ (* -8 c) (* -8 a b))) (* (pow (+ b (* a c)) (/ -1 2)) (+ (* -8 a) (* -8 b c))) (* (pow (+ b (* a c)) (/ -1 2)) (+ (* -8 c) (* -8 a b))) (* (pow (+ c (* a b)) (/ -1 2)) (+ (* -8 a) (* -8 b c))) (* (pow (+ c (* a b)) (/ -1 2)) (+ (* -8 b) (* -8 a c))) (* 8 a (pow 2 (/ 1 2))) (* 8 c (pow 2 (/ 1 2)))) 0)))
(check-sat)
(get-model)
(exit)